c description: Random 3-CNF over 7 variables and 14 clauses
p cnf 7 14
1 2 -6 0
-2 -3 -4 0
3 5 6 0
1 -2 6 0
1 3 -5 0
-1 -5 -7 0
1 -3 -5 0
1 -3 -4 0
-2 3 -6 0
-3 -5 7 0
1 6 -7 0
-1 -2 -7 0
1 -5 -7 0
1 4 7 0